
  22   10
  10   10   10   10   10   10   10   10   10   10

   0   0   0   0   0   0   0   0   0   0   0  12 2 3 4 5 6 7 8 9 10 11 20 21 
   9   0   0  10   0   0   0   0   0   0   0   7 18 17 16 15 14 13 12 
   9   0   0   0   0  10   0   0   0   0   0   5 19 18 15 13 12 
   7   0   0   0   0   0   0   0   0   0  10   4 17 15 14 12 
   3   0   0   0   0   0   0   0  10   0   0   4 17 15 14 12 
   3   0   0  10   0   0   0   0   0   0   0   3 14 13 12 
  10   0   0   0   0   0   0  10   0   0   0   2 16 12 
   9   0   0   0   0   0   0  10   0   0   0   1 16 
   8   0   0   0   0   0   0  10   0   0   0   1 13 
   7   0   0   0  10   0   0   0   0   0   0   1 12 
   9   0   0   0   0   0   0  10   0   0   0   1 12 
   2  10   0   0   0   0   0   0   0   0   0   1 22
   6   0   0   0   0   0   0   0   0  10   0   1 22
   6   0   0  10   0   0   0   0   0   0   0   1 22
   4   0   0   0  10   0   0   0   0   0   0   1 22
   4  10   0   0   0   0   0   0   0   0   0   1 22
   5   0  10   0   0   0   0   0   0   0   0   1 22
   5   0   0   0   0   0   0  10   0   0   0   1 22
   7   0   0  10   0   0   0   0   0   0   0   1 22
   4   0   0   0   0   0   0  10   0   0   0   1 22
   9   0   0  10   0   0   0   0   0   0   0   1 22
   0   0   0   0   0   0   0   0   0   0   0   0 
